(declare-fun var0 () String)
(assert (str.in.re var0 (re.++ (re.union (re.* (str.to.re "hhh")) (re.union (str.to.re "iii") (str.to.re "jjj"))) (re.++ (re.union (re.+ (str.to.re "f")) (re.* (str.to.re "g"))) (re.++ (re.+ (re.union (str.to.re "ddd") (str.to.re "eee"))) (re.++ (re.union (re.* (str.to.re "aa")) (re.union (str.to.re "bb") (str.to.re "cc"))) (re.++ (re.* (re.* (str.to.re "9"))) (re.++ (re.union (re.+ (str.to.re "6")) (re.union (str.to.re "77") (str.to.re "8"))) (re.++ (re.+ (re.union (str.to.re "4") (str.to.re "555"))) (re.++ (re.+ (re.+ (str.to.re "33"))) (re.++ (re.* (re.+ (str.to.re "222"))) (re.union (re.+ (str.to.re "000")) (re.* (str.to.re "111"))))))))))))))
(assert (<= 251 (str.len var0)))
(check-sat)